cantSalas = 6;
cantRamos = 82;
bloques = [2, 1, 2, 2, 1, 1, 1, 1, 1, 2, 2, 1, 2, 1, 1, 2, 2, 1, 1, 1, 2, 2, 2, 1, 1, 1, 1, 1, 2, 1, 2, 2, 2, 2, 1, 1, 1, 1, 1, 1, 1, 1, 2, 1, 2, 1, 1, 2, 1, 2, 2, 2, 1, 2, 1, 1, 1, 1, 1, 1, 2, 2, 1, 1, 1, 1, 1, 1, 2, 1, 1, 1, 1, 2, 1, 1, 1, 1, 1, 2, 2, 1];
capacidad = [52, 45, 68, 65, 50, 72];
prioridad = [9, 2, 1, 5, 5, 7, 4, 5, 4, 4, 10, 2, 4, 1, 1, 7, 4, 4, 4, 3, 10, 3, 1, 1, 3, 7, 3, 1, 3, 3, 9, 1, 1, 2, 4, 8, 5, 4, 3, 1, 9, 2, 2, 2, 4, 8, 3, 3, 3, 5, 8, 4, 3, 4, 3, 9, 5, 1, 4, 5, 6, 2, 5, 4, 1, 10, 2, 5, 3, 2, 6, 5, 4, 5, 1, 7, 2, 4, 5, 1, 7, 2];
interes = [54, 80, 63, 66, 63, 42, 55, 53, 64, 53, 50, 55, 40, 67, 53, 64, 67, 41, 73, 52, 64, 69, 47, 55, 73, 59, 51, 61, 66, 67, 43, 57, 74, 63, 78, 44, 57, 41, 71, 78, 72, 52, 64, 66, 67, 50, 67, 40, 55, 75, 70, 42, 53, 40, 79, 48, 71, 77, 41, 50, 53, 71, 66, 59, 67, 58, 60, 54, 54, 79, 68, 60, 68, 55, 75, 45, 68, 53, 76, 72, 71, 66];
disponibilidad = array2d(1..cantRamos, 1..35, [
  false, true, false, true, false, true, true, true, true, false, true, false, true, true, false, true, true, true, true, true, true, true, false, true, false, true, true, false, true, true, true, true, false, false, true,
  false, true, true, true, false, false, false, false, false, true, false, true, true, false, false, false, false, false, true, true, false, true, false, true, true, false, true, true, true, true, false, false, false, false, true,
  false, true, true, false, true, true, true, false, false, false, true, true, false, false, true, true, false, true, true, false, false, true, false, false, false, false, true, true, false, false, false, true, true, true, true,
  true, false, false, false, false, false, false, true, true, false, false, false, true, false, false, false, false, true, true, false, false, true, true, false, false, true, true, false, true, false, true, false, true, true, false,
  false, true, true, true, false, true, true, true, false, true, true, true, true, false, true, true, true, false, true, true, false, false, true, true, true, true, true, true, true, true, false, true, true, true, true,
  true, true, false, false, false, true, false, true, false, false, true, false, false, true, false, true, true, true, false, true, true, false, false, true, false, true, false, true, false, true, true, true, true, true, true,
  false, true, false, false, true, true, true, false, false, true, false, false, false, false, true, true, true, false, true, false, true, true, true, false, false, true, true, true, false, false, false, false, true, false, true,
  true, false, false, false, true, true, true, false, false, false, false, false, false, false, true, true, true, false, true, false, true, true, true, true, false, false, false, false, false, true, false, false, false, false, true,
  true, true, true, true, true, true, true, true, false, false, true, true, true, true, true, false, true, false, true, true, true, true, true, true, true, false, true, true, true, false, false, true, false, false, true,
  true, false, false, true, false, true, true, false, true, true, false, false, false, true, false, false, true, true, true, false, true, false, false, true, false, false, false, true, true, true, true, true, true, true, true,
  true, false, true, false, true, false, false, true, true, true, true, true, true, true, false, false, true, false, true, true, false, true, false, true, false, false, false, false, true, false, true, true, true, true, false,
  true, false, true, false, false, true, true, true, false, false, true, false, true, false, false, true, false, false, false, false, false, false, false, true, true, true, false, true, true, true, false, false, false, false, false,
  true, true, true, true, false, true, true, false, true, false, true, true, true, true, false, false, false, true, true, false, false, true, true, false, true, true, true, true, false, true, true, true, true, true, true,
  false, true, true, true, false, true, true, false, false, false, false, false, false, true, false, false, true, false, true, true, true, true, false, true, false, false, true, true, true, false, true, false, false, false, false,
  false, true, false, true, false, true, true, false, false, true, true, true, true, true, false, true, true, true, false, true, true, false, true, true, true, true, false, true, true, true, true, true, true, true, false,
  false, true, false, false, false, true, false, false, false, true, true, true, false, false, true, false, true, true, true, true, true, false, false, false, true, true, false, true, true, false, true, false, false, false, true,
  true, true, true, true, false, true, true, true, true, true, false, true, true, true, true, true, true, false, false, true, true, true, true, true, false, true, true, true, false, false, false, false, true, false, true,
  true, true, false, true, true, true, false, true, false, true, true, false, true, true, false, true, true, true, true, false, true, true, false, true, true, false, false, false, true, true, true, false, true, true, true,
  true, true, false, true, true, false, false, false, false, false, true, true, false, false, false, false, false, false, true, true, false, true, true, true, false, true, false, true, true, true, true, false, false, false, false,
  false, true, false, false, true, true, false, true, true, true, true, false, true, false, true, true, true, false, true, true, false, true, true, true, true, false, false, true, true, true, true, true, false, true, true,
  true, true, false, true, true, true, false, false, false, false, false, true, false, true, false, true, false, false, false, false, true, false, false, true, true, true, false, true, false, true, false, true, true, true, true,
  true, true, true, true, true, false, true, true, true, true, true, true, false, true, true, true, true, true, true, true, true, false, false, true, true, true, true, true, true, true, false, true, false, true, false,
  true, false, true, false, false, false, true, false, false, false, true, true, true, false, false, false, true, false, false, false, true, false, true, true, false, true, true, false, true, true, true, true, false, true, true,
  false, true, true, true, true, true, true, true, true, false, false, true, true, true, true, false, true, true, true, true, false, true, true, false, true, true, true, true, true, false, true, true, false, true, true,
  true, false, true, true, false, true, true, true, false, true, false, true, true, false, false, false, false, true, true, false, true, true, true, true, false, false, false, true, true, false, true, false, false, false, true,
  true, true, true, true, true, true, true, false, true, true, true, false, false, false, true, true, true, true, true, true, true, true, true, false, true, true, false, false, true, true, true, true, false, false, true,
  false, false, false, true, true, true, false, true, true, true, true, true, true, true, true, true, false, false, false, false, false, false, true, true, true, false, false, false, false, false, true, true, true, false, true,
  true, true, true, true, false, false, true, true, false, true, false, false, false, false, false, false, true, true, true, false, false, false, false, false, false, true, false, true, true, true, false, false, true, true, true,
  false, false, true, true, false, true, true, false, true, true, false, false, false, true, false, true, false, true, false, true, true, true, false, false, false, true, true, false, true, false, false, false, false, false, true,
  true, true, false, true, true, true, true, true, true, true, false, false, true, false, true, true, true, true, false, true, true, false, true, false, true, true, false, false, false, true, false, false, true, true, false,
  true, true, true, true, true, true, false, true, true, true, false, true, false, false, true, true, true, true, true, false, true, false, false, true, false, true, false, true, true, false, true, true, true, true, false,
  true, true, true, true, true, true, false, true, false, false, true, true, true, true, true, false, false, false, true, true, false, false, false, false, false, true, true, true, false, true, false, false, false, true, true,
  true, false, true, false, false, true, true, true, true, true, true, false, true, true, true, false, true, true, true, false, false, true, true, true, true, true, true, true, true, true, true, true, true, true, true,
  true, true, true, false, true, true, true, true, false, true, true, true, true, false, true, true, true, true, true, true, false, false, true, true, true, true, true, true, true, false, false, false, false, true, true,
  true, true, true, true, true, true, true, true, true, true, true, true, true, false, false, false, false, true, true, false, true, true, true, true, false, true, false, false, true, true, true, false, false, false, true,
  false, true, false, false, true, true, false, false, true, false, false, false, false, false, false, true, false, false, true, false, true, true, false, true, true, false, false, true, false, true, false, false, true, true, true,
  true, false, true, false, false, false, false, true, false, false, false, true, false, false, true, false, false, false, false, true, true, true, true, false, true, true, true, true, true, true, true, false, false, true, false,
  true, true, true, true, true, true, true, true, false, true, true, true, true, true, true, false, true, false, true, true, true, true, false, true, false, false, true, true, false, false, true, true, true, true, false,
  true, true, false, false, true, false, true, false, true, true, true, false, true, true, true, true, true, true, true, true, false, true, true, true, false, true, true, true, false, true, true, true, true, true, false,
  true, false, true, false, false, false, false, true, false, true, false, true, false, true, true, false, true, false, false, true, false, false, false, true, false, true, false, true, true, false, false, true, false, false, true,
  true, false, false, true, false, true, true, false, true, true, false, false, true, true, true, false, false, false, true, true, true, false, false, true, true, true, true, false, true, false, false, true, true, true, true,
  false, true, true, false, false, false, false, true, false, false, true, false, false, true, true, true, true, true, false, true, false, true, true, true, true, false, false, false, false, false, false, true, true, false, true,
  true, true, true, true, true, true, true, false, true, false, true, true, true, false, true, true, true, false, true, false, true, true, false, true, true, false, true, true, true, true, true, false, true, true, false,
  false, false, true, false, true, true, true, false, true, true, false, true, true, true, false, false, true, true, true, true, true, true, true, true, true, true, true, true, true, true, true, false, false, true, true,
  false, true, false, true, true, true, true, true, true, false, true, false, false, true, true, true, true, false, true, true, true, true, true, false, true, true, false, true, false, true, true, true, true, true, true,
  true, true, false, false, true, true, true, false, true, true, false, false, true, true, false, false, false, true, true, false, true, false, true, true, true, true, true, true, true, true, true, false, false, true, true,
  true, true, true, true, true, false, false, false, true, false, true, false, true, false, true, true, true, false, true, true, false, true, false, false, false, true, true, false, false, false, true, false, false, true, false,
  false, true, true, true, false, true, false, false, true, true, true, true, false, true, true, true, false, true, false, true, false, true, true, false, false, true, true, true, true, true, false, true, false, false, true,
  false, false, false, false, false, true, true, true, true, false, false, true, false, true, true, false, false, true, false, true, false, false, true, true, true, true, false, false, true, false, true, true, false, true, true,
  false, false, true, true, false, false, false, false, true, false, true, false, true, false, true, false, false, true, true, false, true, false, true, true, true, false, true, false, false, false, false, true, true, true, true,
  false, false, true, true, true, true, false, true, true, true, true, false, false, false, false, true, false, false, false, true, true, true, false, true, true, true, false, true, false, false, false, true, true, false, false,
  false, true, true, true, true, false, true, true, false, false, true, true, false, true, true, false, true, true, false, false, false, true, false, true, true, false, false, false, true, false, true, true, false, true, true,
  false, false, true, true, true, false, false, true, false, false, false, true, true, false, true, false, false, false, false, false, false, false, true, false, true, true, false, false, true, false, true, true, false, true, false,
  true, true, true, false, true, false, true, false, true, false, false, true, false, true, true, false, true, true, true, false, true, false, true, true, false, true, false, true, false, false, true, false, false, true, false,
  true, true, true, false, true, true, true, false, true, true, false, true, true, true, true, false, true, true, true, false, true, true, true, true, true, false, true, true, true, false, false, true, true, true, true,
  false, true, false, true, false, true, true, true, false, true, true, false, false, true, true, true, true, true, false, false, false, true, true, false, true, true, false, true, false, true, true, false, false, true, true,
  true, false, false, false, false, true, true, true, true, true, false, true, true, false, false, false, false, false, true, true, true, true, true, true, true, true, false, false, false, false, true, false, true, true, false,
  true, true, true, true, true, true, true, false, true, true, true, true, true, true, true, true, true, true, true, false, true, true, true, false, true, false, true, true, true, true, false, false, false, true, true,
  false, true, true, false, true, false, true, true, true, false, false, true, true, false, true, false, true, true, false, true, false, false, true, true, true, true, true, false, true, true, false, true, true, true, false,
  false, false, true, false, true, false, false, false, false, true, false, true, false, false, true, true, true, false, true, false, false, true, false, true, true, false, true, true, false, true, true, true, false, true, false,
  true, false, true, false, false, true, true, true, false, true, true, false, true, true, false, true, false, true, false, false, false, false, false, true, true, true, false, true, false, false, false, false, true, true, false,
  false, false, false, true, false, true, false, true, true, true, false, true, true, false, true, false, true, true, true, true, true, true, false, false, false, true, false, false, false, true, false, true, true, false, false,
  true, false, false, true, true, false, true, false, true, false, false, true, false, true, false, true, false, false, true, false, true, true, false, true, false, true, false, false, true, false, false, false, false, true, true,
  true, false, true, true, false, false, false, true, false, true, true, true, false, true, false, true, true, false, false, false, false, false, true, false, true, false, true, false, true, true, true, false, true, false, false,
  true, true, false, false, false, true, true, false, true, true, true, false, false, false, true, true, true, false, false, true, true, true, false, false, false, true, true, false, false, true, false, false, true, false, true,
  false, false, true, false, true, true, false, false, true, true, false, true, true, false, true, true, false, true, true, false, false, false, false, true, false, true, true, false, true, false, false, false, true, false, true,
  false, false, true, true, true, false, true, true, false, false, true, true, false, true, false, true, true, true, false, true, true, true, true, false, true, true, true, true, true, true, true, true, false, true, false,
  false, true, true, true, true, true, true, true, true, false, true, true, false, true, true, true, false, true, true, true, true, true, true, false, false, true, true, false, true, true, true, true, false, false, true,
  true, true, true, false, true, true, false, true, false, true, true, false, true, true, true, true, true, true, true, true, false, true, true, true, true, false, true, false, false, false, true, true, true, true, true,
  true, false, true, true, true, false, true, false, false, true, true, true, true, true, false, true, true, true, true, true, false, false, true, true, true, true, true, false, false, true, true, true, false, true, true,
  true, false, false, true, true, false, false, true, true, true, true, true, false, false, false, true, false, false, true, true, true, true, false, true, true, true, false, false, true, true, true, true, false, false, true,
  true, true, false, true, false, false, true, false, false, true, false, true, true, true, true, false, false, false, true, false, true, false, false, false, false, true, true, true, false, false, false, false, false, true, false,
  false, true, true, false, true, true, true, false, false, true, false, false, false, false, false, false, true, true, true, true, false, true, true, false, true, false, false, true, false, false, false, true, true, false, true,
  true, false, true, false, true, true, false, false, true, true, false, true, false, false, true, true, true, true, true, false, false, false, false, true, true, true, true, true, false, false, true, false, false, true, false,
  true, true, true, true, true, true, false, true, true, true, true, true, false, true, true, true, false, true, false, true, false, true, true, false, false, false, false, false, true, true, true, true, false, false, true,
  false, false, true, true, true, true, true, true, true, true, false, true, true, false, true, false, false, true, true, true, true, true, true, true, true, true, false, false, false, false, false, true, false, true, true,
  false, false, true, true, false, false, false, true, true, false, false, true, true, true, true, true, false, true, false, true, true, false, true, false, true, true, true, true, false, true, false, false, false, true, true,
  false, false, true, true, true, true, true, false, true, false, false, true, true, true, false, true, false, false, false, true, false, false, true, false, false, false, false, true, true, true, true, false, true, false, true,
  true, true, true, true, false, true, true, true, true, false, true, true, true, true, true, false, true, false, true, true, false, true, false, true, true, true, true, true, true, true, true, false, true, true, false,
  true, true, true, true, false, true, false, true, true, false, false, false, false, false, true, true, false, true, false, false, false, false, true, false, true, false, true, false, false, false, false, false, true, false, false,
  false, true, true, true, true, false, true, true, true, false, false, false, false, true, true, false, true, false, false, true, false, true, true, true, false, false, false, false, true, false, false, true, true, false, false,
  true, false, false, true, false, false, true, true, false, false, true, true, false, false, true, true, true, true, true, true, true, false, true, true, true, true, true, true, true, true, false, true, true, true, true,
]);
